\Problem name: 

Minimize
OBJROW: t(0) + t(1) + t(2)
Subject To
K(0):  2 t(1) + 8 t(2) >= 1
K(1):  3 t(1) + 2 t(2) >= 1
K(2):  9 t(0) + 3 t(1) + 11 t(2) >= 1
K(3):  10 t(0) + 3 t(1) + 9 t(2) >= 1
K(4):  t(0) + 3 t(1) >= 1
K(5):  7 t(0) + t(1) >= 1
Bounds
End
